(declare-sort $$unsorted 0)
(declare-fun tptp.op ($$unsorted $$unsorted) $$unsorted)
(assert (forall ((X0 $$unsorted) (X1 $$unsorted)) (= X0 (tptp.op (tptp.op X1 X0) (tptp.op X1 X1)))))
(assert (not (forall ((X0 $$unsorted) (X1 $$unsorted)) (= X0 (tptp.op X1 (tptp.op X0 (tptp.op X1 X1)))))))
(set-info :filename Equation170_implies_Equation66)
(check-sat-assuming ( true ))
